p cnf 137 351
a 11 9 7 5 4 2 25 23 63 68 76 84 92 100 108 116 124 1 22 0
d 52 25 1 0
d 62 63 22 0
d 3 2 0
d 6 5 0
d 8 7 0
d 10 9 0
d 12 11 0
d 13 11 0
d 14 11 0
d 15 9 11 0
d 16 7 9 11 0
d 17 5 7 9 11 0
d 18 4 5 7 9 11 0
d 19 2 4 5 7 9 11 0
d 20 1 2 4 5 7 9 11 0
d 21 1 2 4 5 7 9 11 0
d 24 23 0
d 26 25 0
d 27 25 2 4 5 7 9 11 0
d 28 23 25 2 4 5 7 9 11 0
d 29 22 23 25 2 4 5 7 9 11 0
d 30 22 23 25 2 4 5 7 9 11 0
d 31 1 2 4 5 7 9 11 22 23 25 0
d 32 11 0
d 33 11 0
d 34 9 11 0
d 35 9 11 0
d 36 11 9 0
d 37 7 9 11 0
d 38 7 9 11 0
d 39 11 9 7 0
d 40 5 7 9 11 0
d 41 5 7 9 11 0
d 42 11 9 7 5 0
d 43 4 5 7 9 11 0
d 44 4 5 7 9 11 0
d 45 11 9 7 5 4 0
d 46 2 4 5 7 9 11 0
d 47 4 0
d 48 4 5 7 9 11 0
d 49 2 4 5 7 9 11 0
d 50 2 4 5 7 9 11 0
d 51 11 9 7 5 4 2 0
d 53 2 4 5 7 9 11 0
d 54 25 2 4 5 7 9 11 0
d 55 25 1 2 4 5 7 9 11 0
d 56 11 9 7 5 4 2 25 1 0
d 57 23 25 2 4 5 7 9 11 0
d 58 25 2 4 5 7 9 11 0
d 59 23 25 2 4 5 7 9 11 0
d 60 23 25 2 4 5 7 9 11 0
d 61 11 9 7 5 4 2 25 1 23 0
d 64 23 25 2 4 5 7 9 11 0
d 65 63 23 25 2 4 5 7 9 11 0
d 66 63 22 23 25 2 4 5 7 9 11 0
d 67 11 9 7 5 4 2 25 1 23 63 22 0
d 69 63 0
d 70 63 23 25 2 4 5 7 9 11 0
d 71 68 63 23 25 2 4 5 7 9 11 0
d 72 63 23 25 2 4 5 7 9 11 0
d 73 68 63 23 25 2 4 5 7 9 11 0
d 74 68 63 23 25 2 4 5 7 9 11 0
d 75 11 9 7 5 4 2 25 1 23 63 22 68 0
d 77 68 0
d 78 68 63 23 25 2 4 5 7 9 11 0
d 79 76 68 63 23 25 2 4 5 7 9 11 0
d 80 68 63 23 25 2 4 5 7 9 11 0
d 81 76 68 63 23 25 2 4 5 7 9 11 0
d 82 76 68 63 23 25 2 4 5 7 9 11 0
d 83 11 9 7 5 4 2 25 1 23 63 22 68 76 0
d 85 76 0
d 86 76 68 63 23 25 2 4 5 7 9 11 0
d 87 84 76 68 63 23 25 2 4 5 7 9 11 0
d 88 76 68 63 23 25 2 4 5 7 9 11 0
d 89 84 76 68 63 23 25 2 4 5 7 9 11 0
d 90 84 76 68 63 23 25 2 4 5 7 9 11 0
d 91 11 9 7 5 4 2 25 1 23 63 22 68 76 84 0
d 93 84 0
d 94 84 76 68 63 23 25 2 4 5 7 9 11 0
d 95 92 84 76 68 63 23 25 2 4 5 7 9 11 0
d 96 84 76 68 63 23 25 2 4 5 7 9 11 0
d 97 92 84 76 68 63 23 25 2 4 5 7 9 11 0
d 98 92 84 76 68 63 23 25 2 4 5 7 9 11 0
d 99 11 9 7 5 4 2 25 1 23 63 22 68 76 84 92 0
d 101 92 0
d 102 92 84 76 68 63 23 25 2 4 5 7 9 11 0
d 103 100 92 84 76 68 63 23 25 2 4 5 7 9 11 0
d 104 92 84 76 68 63 23 25 2 4 5 7 9 11 0
d 105 100 92 84 76 68 63 23 25 2 4 5 7 9 11 0
d 106 100 92 84 76 68 63 23 25 2 4 5 7 9 11 0
d 107 11 9 7 5 4 2 25 1 23 63 22 68 76 84 92 100 0
d 109 100 0
d 110 100 92 84 76 68 63 23 25 2 4 5 7 9 11 0
d 111 108 100 92 84 76 68 63 23 25 2 4 5 7 9 11 0
d 112 100 92 84 76 68 63 23 25 2 4 5 7 9 11 0
d 113 108 100 92 84 76 68 63 23 25 2 4 5 7 9 11 0
d 114 108 100 92 84 76 68 63 23 25 2 4 5 7 9 11 0
d 115 11 9 7 5 4 2 25 1 23 63 22 68 76 84 92 100 108 0
d 117 108 0
d 118 108 100 92 84 76 68 63 23 25 2 4 5 7 9 11 0
d 119 116 108 100 92 84 76 68 63 23 25 2 4 5 7 9 11 0
d 120 108 100 92 84 76 68 63 23 25 2 4 5 7 9 11 0
d 121 116 108 100 92 84 76 68 63 23 25 2 4 5 7 9 11 0
d 122 116 108 100 92 84 76 68 63 23 25 2 4 5 7 9 11 0
d 123 11 9 7 5 4 2 25 1 23 63 22 68 76 84 92 100 108 116 0
d 125 116 0
d 126 116 108 100 92 84 76 68 63 23 25 2 4 5 7 9 11 0
d 127 124 116 108 100 92 84 76 68 63 23 25 2 4 5 7 9 11 0
d 128 116 108 100 92 84 76 68 63 23 25 2 4 5 7 9 11 0
d 129 124 116 108 100 92 84 76 68 63 23 25 2 4 5 7 9 11 0
d 130 124 116 108 100 92 84 76 68 63 23 25 2 4 5 7 9 11 0
d 131 11 9 7 5 4 2 25 1 23 63 22 68 76 84 92 100 108 116 124 0
d 132 124 0
d 133 124 116 108 100 92 84 76 68 63 23 25 2 4 5 7 9 11 0
d 134 124 116 108 100 92 84 76 68 63 23 25 2 4 5 7 9 11 0
d 135 124 116 108 100 92 84 76 68 63 23 25 2 4 5 7 9 11 0
d 136 11 9 7 5 4 2 25 1 23 63 22 68 76 84 92 100 108 116 124 0
d 137 1 2 4 5 7 9 11 22 23 25 63 68 76 84 92 100 108 116 124 0
3 2 0
-3 -2 0
6 5 0
-6 -5 0
8 7 0
-8 -7 0
10 9 0
-10 -9 0
12 11 0
-12 -11 0
13 -11 0
13 -12 0
-13 11 12 0
-14 12 0
-14 13 0
14 -12 -13 0
-15 10 0
-15 14 0
15 -10 -14 0
-16 8 0
-16 15 0
16 -8 -15 0
-17 6 0
-17 16 0
17 -6 -16 0
18 -4 -17 0
18 4 17 0
-18 -4 17 0
-18 4 -17 0
-19 3 0
-19 18 0
19 -3 -18 0
20 -1 -19 0
20 1 19 0
-20 -1 19 0
-20 1 -19 0
21 20 0
-21 -20 0
24 23 0
-24 -23 0
26 25 0
-26 -25 0
-27 26 0
-27 19 0
27 -26 -19 0
-28 24 0
-28 27 0
28 -24 -27 0
29 -22 -28 0
29 22 28 0
-29 -22 28 0
-29 22 -28 0
30 29 0
-30 -29 0
31 -21 0
31 -30 0
-31 21 30 0
-32 11 0
-32 13 0
32 -11 -13 0
33 -32 -32 0
33 32 32 0
-33 -32 32 0
-33 32 -32 0
-34 9 0
-34 14 0
34 -9 -14 0
35 -34 -34 0
35 34 34 0
-35 -34 34 0
-35 34 -34 0
-36 33 0
-36 35 0
36 -33 -35 0
-37 7 0
-37 15 0
37 -7 -15 0
38 -37 -37 0
38 37 37 0
-38 -37 37 0
-38 37 -37 0
-39 36 0
-39 38 0
39 -36 -38 0
-40 5 0
-40 16 0
40 -5 -16 0
41 -40 -40 0
41 40 40 0
-41 -40 40 0
-41 40 -40 0
-42 39 0
-42 41 0
42 -39 -41 0
-43 4 0
-43 17 0
43 -4 -17 0
44 -43 -43 0
44 43 43 0
-44 -43 43 0
-44 43 -43 0
-45 42 0
-45 44 0
45 -42 -44 0
-46 2 0
-46 18 0
46 -2 -18 0
47 4 0
-47 -4 0
-48 47 0
-48 17 0
48 -47 -17 0
-49 2 0
-49 48 0
49 -2 -48 0
50 -46 -49 0
50 46 49 0
-50 -46 49 0
-50 46 -49 0
-51 45 0
-51 50 0
51 -45 -50 0
-53 3 0
-53 48 0
53 -3 -48 0
-54 25 0
-54 53 0
54 -25 -53 0
55 -52 -54 0
55 52 54 0
-55 -52 54 0
-55 52 -54 0
-56 51 0
-56 55 0
56 -51 -55 0
-57 23 0
-57 27 0
57 -23 -27 0
-58 26 0
-58 53 0
58 -26 -53 0
-59 23 0
-59 58 0
59 -23 -58 0
60 -57 -59 0
60 57 59 0
-60 -57 59 0
-60 57 -59 0
-61 56 0
-61 60 0
61 -56 -60 0
-64 24 0
-64 58 0
64 -24 -58 0
-65 63 0
-65 64 0
65 -63 -64 0
66 -62 -65 0
66 62 65 0
-66 -62 65 0
-66 62 -65 0
-67 61 0
-67 66 0
67 -61 -66 0
69 63 0
-69 -63 0
-70 69 0
-70 28 0
70 -69 -28 0
-71 68 0
-71 70 0
71 -68 -70 0
-72 69 0
-72 64 0
72 -69 -64 0
-73 68 0
-73 72 0
73 -68 -72 0
74 -71 -73 0
74 71 73 0
-74 -71 73 0
-74 71 -73 0
-75 67 0
-75 74 0
75 -67 -74 0
77 68 0
-77 -68 0
-78 77 0
-78 70 0
78 -77 -70 0
-79 76 0
-79 78 0
79 -76 -78 0
-80 77 0
-80 72 0
80 -77 -72 0
-81 76 0
-81 80 0
81 -76 -80 0
82 -79 -81 0
82 79 81 0
-82 -79 81 0
-82 79 -81 0
-83 75 0
-83 82 0
83 -75 -82 0
85 76 0
-85 -76 0
-86 85 0
-86 78 0
86 -85 -78 0
-87 84 0
-87 86 0
87 -84 -86 0
-88 85 0
-88 80 0
88 -85 -80 0
-89 84 0
-89 88 0
89 -84 -88 0
90 -87 -89 0
90 87 89 0
-90 -87 89 0
-90 87 -89 0
-91 83 0
-91 90 0
91 -83 -90 0
93 84 0
-93 -84 0
-94 93 0
-94 86 0
94 -93 -86 0
-95 92 0
-95 94 0
95 -92 -94 0
-96 93 0
-96 88 0
96 -93 -88 0
-97 92 0
-97 96 0
97 -92 -96 0
98 -95 -97 0
98 95 97 0
-98 -95 97 0
-98 95 -97 0
-99 91 0
-99 98 0
99 -91 -98 0
101 92 0
-101 -92 0
-102 101 0
-102 94 0
102 -101 -94 0
-103 100 0
-103 102 0
103 -100 -102 0
-104 101 0
-104 96 0
104 -101 -96 0
-105 100 0
-105 104 0
105 -100 -104 0
106 -103 -105 0
106 103 105 0
-106 -103 105 0
-106 103 -105 0
-107 99 0
-107 106 0
107 -99 -106 0
109 100 0
-109 -100 0
-110 109 0
-110 102 0
110 -109 -102 0
-111 108 0
-111 110 0
111 -108 -110 0
-112 109 0
-112 104 0
112 -109 -104 0
-113 108 0
-113 112 0
113 -108 -112 0
114 -111 -113 0
114 111 113 0
-114 -111 113 0
-114 111 -113 0
-115 107 0
-115 114 0
115 -107 -114 0
117 108 0
-117 -108 0
-118 117 0
-118 110 0
118 -117 -110 0
-119 116 0
-119 118 0
119 -116 -118 0
-120 117 0
-120 112 0
120 -117 -112 0
-121 116 0
-121 120 0
121 -116 -120 0
122 -119 -121 0
122 119 121 0
-122 -119 121 0
-122 119 -121 0
-123 115 0
-123 122 0
123 -115 -122 0
125 116 0
-125 -116 0
-126 125 0
-126 118 0
126 -125 -118 0
-127 124 0
-127 126 0
127 -124 -126 0
-128 125 0
-128 120 0
128 -125 -120 0
-129 124 0
-129 128 0
129 -124 -128 0
130 -127 -129 0
130 127 129 0
-130 -127 129 0
-130 127 -129 0
-131 123 0
-131 130 0
131 -123 -130 0
132 124 0
-132 -124 0
-133 132 0
-133 126 0
133 -132 -126 0
-134 132 0
-134 128 0
134 -132 -128 0
135 -133 -134 0
135 133 134 0
-135 -133 134 0
-135 133 -134 0
-136 131 0
-136 135 0
136 -131 -135 0
137 -31 0
137 -136 0
-137 31 136 0
137 0
